interdiction/MCDM/NO_CORR/GEN_FROM_60/13_ITEMS_1000_GEN/K5013W08.KNP.mps
NAME          BLANK   
ROWS
 N  OBJROW
 L  R0000000
COLUMNS
    C0000000  OBJROW     -293.         R0000000  68.         
    C0000001  OBJROW     -708.         R0000000  264.        
    C0000002  OBJROW     -432.         R0000000  519.        
    C0000003  OBJROW     -225.         R0000000  538.        
    C0000004  OBJROW     -26.          R0000000  96.         
    C0000005  OBJROW     -703.         R0000000  29.         
    C0000006  OBJROW     -980.         R0000000  590.        
    C0000007  OBJROW     -230.         R0000000  171.        
    C0000008  OBJROW     -973.         R0000000  247.        
    C0000009  OBJROW     -279.         R0000000  891.        
    C0000010  OBJROW     -782.         R0000000  154.        
    C0000011  OBJROW     -545.         R0000000  70.         
    C0000012  OBJROW     -353.         R0000000  465.        
RHS
    RHS       R0000000  15314.      
BOUNDS
 BV BOUND     C0000000  1.          
 BV BOUND     C0000001  1.          
 BV BOUND     C0000002  1.          
 BV BOUND     C0000003  1.          
 BV BOUND     C0000004  1.          
 BV BOUND     C0000005  1.          
 BV BOUND     C0000006  1.          
 BV BOUND     C0000007  1.          
 BV BOUND     C0000008  1.          
 BV BOUND     C0000009  1.          
 BV BOUND     C0000010  1.          
 BV BOUND     C0000011  1.          
 BV BOUND     C0000012  1.          
ENDATA
