data/MCDM/NO_CORR/GEN_FROM_60/13_ITEMS_1000_GEN/K5013W08.KNP.txt
N 13
M 14
LC 13
LC 14
LC 15
LC 16
LC 17
LC 18
LC 19
LC 20
LC 21
LC 22
LC 23
LC 24
LC 25
LR 1
LR 2
LR 3
LR 4
LR 5
LR 6
LR 7
LR 8
LR 9
LR 10
LR 11
LR 12
LR 13
LR 14
LO -293
LO -708
LO -432
LO -225
LO -26
LO -703
LO -980
LO -230
LO -973
LO -279
LO -782
LO -545
LO -353
OS 1
IC 289
IC 790
IC 746
IC 915
IC 790
IC 675
IC 598
IC 660
IC 974
IC 222
IC 853
IC 51
IC 827
IB 4195
